sat
(
(define-fun J () String "")
(define-fun H () String "aaaaabaaabbaaaaaaaabaaaabbbaab")
(define-fun K () String "")
(define-fun G () String "")
(define-fun L () String "")
(define-fun O () String "aaaaaaaabaaaabbbaa")
(define-fun M () String "")
(define-fun Q () String "")
)
